(declare-const a Real)
(declare-const b Real)
(declare-const c Real)
(assert (= (* a b c) 1))
(assert (> a 0))
(assert (> b 0))
(assert (> c 0))
(assert (not (<= (+ (* -225254 (pow b 4)) (* -173798 (pow a 4)) (* (/ 17343 64) (pow (+ (* 2 a) (* 2 b)) 4)) (* -442368 (pow a (pow 3 -1)) (pow b (/ 11 3))) (* -221184 (pow a (/ 10 3)) (pow b (/ 2 3))) (* 979833107458183168 (pow a 3) (pow b 3) (pow (+ (* 223976 b) (* 769256 a)) -2))) 0)))
(check-sat)
(get-model)
(exit)